DATASET = "thpack6";
INSTANCE = "040";

WIDTH = 233;
HEIGHT = 220;
LENGTH = 587;

NO_OF_SHAPES = 15;
size = [|
  85,77,62 |
  94,63,32 |
  83,75,45 |
  95,95,54 |
  76,76,30 |
  113,66,44 |
  108,71,61 |
  118,62,37 |
  93,58,48 |
  60,32,29 |
  97,75,59 |
  105,56,35 |
  67,58,53 |
  96,51,37 |
  91,52,32 |
|];

verticality = [|
  1,1,1 |
  0,1,1 |
  1,1,1 |
  1,1,1 |
  0,0,1 |
  0,1,1 |
  1,1,1 |
  0,1,1 |
  1,1,1 |
  0,1,1 |
  1,1,1 |
  0,1,1 |
  1,1,1 |
  0,1,1 |
  0,1,1 |
|];

box_count = [
  7,
  4,
  6,
  6,
  3,
  7,
  12,
  10,
  5,
  7,
  9,
  9,
  8,
  6,
  3,
];
